--------------------------------------------------------------------------------(Solver execution current time: 0.0001766681671142578)
[INFO] Input Seed : 3250786
--------------------------------------------------------------------------------(Solver execution current time: 0.00021576881408691406)
[INFO] Input time limit : 30
--------------------------------------------------------------------------------(Solver execution current time: 0.00024080276489257812)
[INFO] Command line arguments read with no errors.
--------------------------------------------------------------------------------(Solver execution current time: 0.06717038154602051)
[INFO] Input file read with no errors.
--------------------------------------------------------------------------------(Solver execution current time: 0.06729936599731445)
[INFO] Starting solver.
--------------------------------------------------------------------------------(Solver execution current time: 0.0673530101776123)
[INFO] Starting construction
--------------------------------------------------------------------------------(Solver execution current time: 15.85390043258667)
[INFO] Finished construction
--------------------------------------------------------------------------------(Solver execution current time: 15.854009628295898)
[SOLUTION]
Basic Greedy Heuristic
Exec Time: 15.78655219078064
obj_value: -84; obj_routes: 32906.0
Route 1 : 22 30 130 91 16 122 191 1 23 123 52 58 152 158 88 116 10 188 101 37 41 137 99 199 6 106 110 49 149 141 65 165 
Route 2 : 59 51 151 14 27 75 95 77 56 159 114 175 3 13 177 113 46 84 156 184 146 12 112 78 103 81 195 181 178 127 79 179 34 17 134 117 
Route 3 : 68 168 72 62 162 172 92 192 80 180 66 73 63 7 107 82 166 173 43 182 163 143 48 148 67 24 124 36 167 136 74 174 
Route 4 : 44 144 70 96 57 170 85 196 157 39 64 139 185 164 19 119 40 140 
Route 5 : 100 200 97 47 197 9 109 147 76 5 176 105 54 154 
Route 6 : 53 153 45 60 145 160 15 28 128 98 198 115 
Route 7 : 94 194 90 190 38 25 125 93 193 138 
Route 8 : 18 118 26 126 8 35 135 71 108 171 
Route 9 : 86 32 132 186 
Route 10 : 
Route 11 : 
Route 12 : 
Route 13 : 
Route 14 : 
Route 15 : 
Route 16 : 
Route 17 : 
Route 18 : 
Route 19 : 
Route 20 : 
Route 21 : 

--------------------------------------------------------------------------------(Solver execution current time: 15.855247735977173)
[SOLUTION]
Solution after BasicGreedyLimitedHeterogeneousFleet
obj_value: -84; obj_routes: 32906.0
Route 1 : 22 30 130 91 16 122 191 1 23 123 52 58 152 158 88 116 10 188 101 37 41 137 99 199 6 106 110 49 149 141 65 165 
Route 2 : 59 51 151 14 27 75 95 77 56 159 114 175 3 13 177 113 46 84 156 184 146 12 112 78 103 81 195 181 178 127 79 179 34 17 134 117 
Route 3 : 68 168 72 62 162 172 92 192 80 180 66 73 63 7 107 82 166 173 43 182 163 143 48 148 67 24 124 36 167 136 74 174 
Route 4 : 44 144 70 96 57 170 85 196 157 39 64 139 185 164 19 119 40 140 
Route 5 : 100 200 97 47 197 9 109 147 76 5 176 105 54 154 
Route 6 : 53 153 45 60 145 160 15 28 128 98 198 115 
Route 7 : 94 194 90 190 38 25 125 93 193 138 
Route 8 : 18 118 26 126 8 35 135 71 108 171 
Route 9 : 86 32 132 186 
Route 10 : 
Route 11 : 
Route 12 : 
Route 13 : 
Route 14 : 
Route 15 : 
Route 16 : 
Route 17 : 
Route 18 : 
Route 19 : 
Route 20 : 
Route 21 : 

--------------------------------------------------------------------------------(Solver execution current time: 15.855564832687378)
[INFO] Starting metaheuristic
--------------------------------------------------------------------------------(Solver execution current time: 15.860268592834473)
[INFO] AGES EXCLUDED
--------------------------------------------------------------------------------(Solver execution current time: 15.863228559494019)
[INFO] Starting LNS
--------------------------------------------------------------------------------(Solver execution current time: 17.673649787902832)
[SOLUTION]
LNS
IT: 40
Exec Time: 1.806063175201416
obj_value: -84; obj_routes: 32906.0
Route 1 : 22 30 130 91 16 122 191 1 23 123 52 58 152 158 88 116 10 188 101 37 41 137 99 199 6 106 110 49 149 141 65 165 
Route 2 : 59 51 151 14 27 75 95 77 56 159 114 175 3 13 177 113 46 84 156 184 146 12 112 78 103 81 195 181 178 127 79 179 34 17 134 117 
Route 3 : 68 168 72 62 162 172 92 192 80 180 66 73 63 7 107 82 166 173 43 182 163 143 48 148 67 24 124 36 167 136 74 174 
Route 4 : 44 144 70 96 57 170 85 196 157 39 64 139 185 164 19 119 40 140 
Route 5 : 100 200 97 47 197 9 109 147 76 5 176 105 54 154 
Route 6 : 53 153 45 60 145 160 15 28 128 98 198 115 
Route 7 : 94 194 90 190 38 25 125 93 193 138 
Route 8 : 18 118 26 126 8 35 135 71 108 171 
Route 9 : 86 32 132 186 
Route 10 : 
Route 11 : 
Route 12 : 
Route 13 : 
Route 14 : 
Route 15 : 
Route 16 : 
Route 17 : 
Route 18 : 
Route 19 : 
Route 20 : 
Route 21 : 

--------------------------------------------------------------------------------(Solver execution current time: 17.676278352737427)
[INFO] Starting PartitionMaxRequestsHF
--------------------------------------------------------------------------------(Solver execution current time: 17.77820324897766)
[SOLUTION]
PartitionMaxRequestsHF
Exec Time: 0.10181331634521484
obj_value: -84; obj_routes: 32906.0
Route 1 : 22 30 130 91 16 122 191 1 23 123 52 58 152 158 88 116 10 188 101 37 41 137 99 199 6 106 110 49 149 141 65 165 
Route 2 : 59 51 151 14 27 75 95 77 56 159 114 175 3 13 177 113 46 84 156 184 146 12 112 78 103 81 195 181 178 127 79 179 34 17 134 117 
Route 3 : 68 168 72 62 162 172 92 192 80 180 66 73 63 7 107 82 166 173 43 182 163 143 48 148 67 24 124 36 167 136 74 174 
Route 4 : 44 144 70 96 57 170 85 196 157 39 64 139 185 164 19 119 40 140 
Route 5 : 100 200 97 47 197 9 109 147 76 5 176 105 54 154 
Route 6 : 53 153 45 60 145 160 15 28 128 98 198 115 
Route 7 : 94 194 90 190 38 25 125 93 193 138 
Route 8 : 18 118 26 126 8 35 135 71 108 171 
Route 9 : 86 32 132 186 
Route 10 : 
Route 11 : 
Route 12 : 
Route 13 : 
Route 14 : 
Route 15 : 
Route 16 : 
Route 17 : 
Route 18 : 
Route 19 : 
Route 20 : 
Route 21 : 

--------------------------------------------------------------------------------(Solver execution current time: 17.780670166015625)
[INFO] Starting OriginalPerturbation
--------------------------------------------------------------------------------(Solver execution current time: 22.233657836914062)
[SOLUTION]
Original Perturbation
Exec Time: 4.45493745803833
obj_value: -84; obj_routes: 34101.0
Route 1 : 22 30 130 91 16 122 191 1 23 123 52 58 152 158 88 116 10 188 101 37 41 137 99 199 6 106 110 49 149 141 65 165 
Route 2 : 59 51 151 14 27 75 95 77 56 159 114 175 3 13 177 113 46 84 156 184 146 12 112 78 103 81 195 181 178 127 79 179 34 17 134 117 
Route 3 : 68 168 72 62 162 172 92 192 80 180 66 73 63 7 107 82 166 173 43 182 163 143 67 24 124 36 167 136 74 174 
Route 4 : 44 144 70 96 57 170 85 196 157 39 64 139 185 164 19 119 40 140 
Route 5 : 100 200 97 47 197 9 109 147 76 5 176 105 
Route 6 : 53 153 45 60 145 160 86 28 128 186 
Route 7 : 18 118 26 126 8 108 
Route 8 : 15 115 38 138 32 132 
Route 9 : 94 194 98 198 93 25 125 193 
Route 10 : 71 171 
Route 11 : 35 135 48 54 154 148 
Route 12 : 90 190 
Route 13 : 
Route 14 : 
Route 15 : 
Route 16 : 
Route 17 : 
Route 18 : 
Route 19 : 
Route 20 : 
Route 21 : 

--------------------------------------------------------------------------------(Solver execution current time: 22.235697746276855)
[SOLUTION]
SBMath
IT: 1
ITs witout improving: 1
IT time: 6.375439643859863
Time since begin: 6.377347469329834
obj_value: -84; obj_routes: 34101.0
Route 1 : 22 30 130 91 16 122 191 1 23 123 52 58 152 158 88 116 10 188 101 37 41 137 99 199 6 106 110 49 149 141 65 165 
Route 2 : 59 51 151 14 27 75 95 77 56 159 114 175 3 13 177 113 46 84 156 184 146 12 112 78 103 81 195 181 178 127 79 179 34 17 134 117 
Route 3 : 68 168 72 62 162 172 92 192 80 180 66 73 63 7 107 82 166 173 43 182 163 143 67 24 124 36 167 136 74 174 
Route 4 : 44 144 70 96 57 170 85 196 157 39 64 139 185 164 19 119 40 140 
Route 5 : 100 200 97 47 197 9 109 147 76 5 176 105 
Route 6 : 53 153 45 60 145 160 86 28 128 186 
Route 7 : 18 118 26 126 8 108 
Route 8 : 15 115 38 138 32 132 
Route 9 : 94 194 98 198 93 25 125 193 
Route 10 : 71 171 
Route 11 : 35 135 48 54 154 148 
Route 12 : 90 190 
Route 13 : 
Route 14 : 
Route 15 : 
Route 16 : 
Route 17 : 
Route 18 : 
Route 19 : 
Route 20 : 
Route 21 : 

--------------------------------------------------------------------------------(Solver execution current time: 22.236046075820923)
[SOLUTION]
SBMath
IT: 1
ITs witout improving: 1
IT time: 6.375439643859863
Time since begin: 6.377347469329834
obj_value: -84; obj_routes: 32906.0
Route 1 : 22 30 130 91 16 122 191 1 23 123 52 58 152 158 88 116 10 188 101 37 41 137 99 199 6 106 110 49 149 141 65 165 
Route 2 : 59 51 151 14 27 75 95 77 56 159 114 175 3 13 177 113 46 84 156 184 146 12 112 78 103 81 195 181 178 127 79 179 34 17 134 117 
Route 3 : 68 168 72 62 162 172 92 192 80 180 66 73 63 7 107 82 166 173 43 182 163 143 48 148 67 24 124 36 167 136 74 174 
Route 4 : 44 144 70 96 57 170 85 196 157 39 64 139 185 164 19 119 40 140 
Route 5 : 100 200 97 47 197 9 109 147 76 5 176 105 54 154 
Route 6 : 53 153 45 60 145 160 15 28 128 98 198 115 
Route 7 : 94 194 90 190 38 25 125 93 193 138 
Route 8 : 18 118 26 126 8 35 135 71 108 171 
Route 9 : 86 32 132 186 
Route 10 : 
Route 11 : 
Route 12 : 
Route 13 : 
Route 14 : 
Route 15 : 
Route 16 : 
Route 17 : 
Route 18 : 
Route 19 : 
Route 20 : 
Route 21 : 

--------------------------------------------------------------------------------(Solver execution current time: 22.23628878593445)
[INFO] AGES EXCLUDED
--------------------------------------------------------------------------------(Solver execution current time: 22.23987650871277)
[INFO] Starting LNS
--------------------------------------------------------------------------------(Solver execution current time: 23.9770610332489)
[SOLUTION]
LNS
IT: 40
Exec Time: 1.7305772304534912
obj_value: -84; obj_routes: 34101.0
Route 1 : 22 30 130 91 16 122 191 1 23 123 52 58 152 158 88 116 10 188 101 37 41 137 99 199 6 106 110 49 149 141 65 165 
Route 2 : 59 51 151 14 27 75 95 77 56 159 114 175 3 13 177 113 46 84 156 184 146 12 112 78 103 81 195 181 178 127 79 179 34 17 134 117 
Route 3 : 68 168 72 62 162 172 92 192 80 180 66 73 63 7 107 82 166 173 43 182 163 143 67 24 124 36 167 136 74 174 
Route 4 : 44 144 70 96 57 170 85 196 157 39 64 139 185 164 19 119 40 140 
Route 5 : 100 200 97 47 197 9 109 147 76 5 176 105 
Route 6 : 53 153 45 60 145 160 86 28 128 186 
Route 7 : 18 118 26 126 8 108 
Route 8 : 15 115 38 138 32 132 
Route 9 : 94 194 98 198 93 25 125 193 
Route 10 : 71 171 
Route 11 : 35 135 48 54 154 148 
Route 12 : 90 190 
Route 13 : 
Route 14 : 
Route 15 : 
Route 16 : 
Route 17 : 
Route 18 : 
Route 19 : 
Route 20 : 
Route 21 : 

--------------------------------------------------------------------------------(Solver execution current time: 23.98099446296692)
[INFO] Starting PartitionMaxRequestsHF
--------------------------------------------------------------------------------(Solver execution current time: 24.0104660987854)
[SOLUTION]
PartitionMaxRequestsHF
Exec Time: 0.029364824295043945
Improvedobj_value: -84; obj_routes: 33549.0
Route 1 : 22 30 130 91 16 122 191 1 23 123 52 58 152 158 88 116 10 188 101 37 41 137 99 199 6 106 110 49 149 141 65 165 
Route 2 : 59 51 151 14 27 75 95 77 56 159 114 175 3 13 177 113 46 84 156 184 146 12 112 78 103 81 195 181 178 127 79 179 34 17 134 117 
Route 3 : 44 144 70 96 57 170 85 196 157 39 64 139 185 164 19 119 40 140 
Route 4 : 53 153 45 60 145 160 15 28 128 98 198 115 
Route 5 : 94 194 90 190 38 25 125 93 193 138 
Route 6 : 86 32 132 186 
Route 7 : 68 168 72 62 162 172 92 192 80 180 66 73 63 7 107 82 166 173 43 182 163 143 67 24 124 36 167 136 74 174 
Route 8 : 100 200 97 47 197 9 109 147 76 5 176 105 
Route 9 : 18 118 26 126 8 108 
Route 10 : 71 171 
Route 11 : 35 135 48 54 154 148 
Route 12 : 
Route 13 : 
Route 14 : 
Route 15 : 
Route 16 : 
Route 17 : 
Route 18 : 
Route 19 : 
Route 20 : 
Route 21 : 

--------------------------------------------------------------------------------(Solver execution current time: 24.01260256767273)
[INFO] Starting OriginalPerturbation
--------------------------------------------------------------------------------(Solver execution current time: 26.6744122505188)
[SOLUTION]
Original Perturbation
Exec Time: 2.663484811782837
obj_value: -84; obj_routes: 33516.0
Route 1 : 22 30 130 91 16 122 191 1 23 123 52 58 152 158 88 116 10 188 101 37 41 137 99 199 6 106 110 49 149 141 65 165 
Route 2 : 59 51 151 14 27 75 95 77 56 159 114 175 3 13 177 113 46 84 156 184 146 12 112 78 103 81 195 181 178 127 79 179 34 17 134 117 
Route 3 : 68 168 72 62 162 172 92 192 80 180 66 73 63 7 107 82 166 173 43 182 163 143 67 24 124 36 167 136 74 174 
Route 4 : 44 144 70 96 57 170 85 196 157 39 64 139 185 164 19 119 40 140 
Route 5 : 100 200 97 47 197 9 109 147 76 5 176 105 
Route 6 : 53 153 45 60 145 160 15 86 186 115 
Route 7 : 18 118 25 125 93 193 
Route 8 : 38 138 32 132 
Route 9 : 28 128 98 8 108 198 
Route 10 : 54 154 48 148 
Route 11 : 90 190 26 126 
Route 12 : 94 194 35 135 
Route 13 : 71 171 
Route 14 : 
Route 15 : 
Route 16 : 
Route 17 : 
Route 18 : 
Route 19 : 
Route 20 : 
Route 21 : 

--------------------------------------------------------------------------------(Solver execution current time: 26.676928520202637)
[SOLUTION]
SBMath
IT: 2
ITs witout improving: 2
IT time: 4.4406468868255615
Time since begin: 10.818578720092773
obj_value: -84; obj_routes: 33516.0
Route 1 : 22 30 130 91 16 122 191 1 23 123 52 58 152 158 88 116 10 188 101 37 41 137 99 199 6 106 110 49 149 141 65 165 
Route 2 : 59 51 151 14 27 75 95 77 56 159 114 175 3 13 177 113 46 84 156 184 146 12 112 78 103 81 195 181 178 127 79 179 34 17 134 117 
Route 3 : 68 168 72 62 162 172 92 192 80 180 66 73 63 7 107 82 166 173 43 182 163 143 67 24 124 36 167 136 74 174 
Route 4 : 44 144 70 96 57 170 85 196 157 39 64 139 185 164 19 119 40 140 
Route 5 : 100 200 97 47 197 9 109 147 76 5 176 105 
Route 6 : 53 153 45 60 145 160 15 86 186 115 
Route 7 : 18 118 25 125 93 193 
Route 8 : 38 138 32 132 
Route 9 : 28 128 98 8 108 198 
Route 10 : 54 154 48 148 
Route 11 : 90 190 26 126 
Route 12 : 94 194 35 135 
Route 13 : 71 171 
Route 14 : 
Route 15 : 
Route 16 : 
Route 17 : 
Route 18 : 
Route 19 : 
Route 20 : 
Route 21 : 

--------------------------------------------------------------------------------(Solver execution current time: 26.677187204360962)
[SOLUTION]
SBMath
IT: 2
ITs witout improving: 2
IT time: 4.4406468868255615
Time since begin: 10.818578720092773
obj_value: -84; obj_routes: 32906.0
Route 1 : 22 30 130 91 16 122 191 1 23 123 52 58 152 158 88 116 10 188 101 37 41 137 99 199 6 106 110 49 149 141 65 165 
Route 2 : 59 51 151 14 27 75 95 77 56 159 114 175 3 13 177 113 46 84 156 184 146 12 112 78 103 81 195 181 178 127 79 179 34 17 134 117 
Route 3 : 68 168 72 62 162 172 92 192 80 180 66 73 63 7 107 82 166 173 43 182 163 143 48 148 67 24 124 36 167 136 74 174 
Route 4 : 44 144 70 96 57 170 85 196 157 39 64 139 185 164 19 119 40 140 
Route 5 : 100 200 97 47 197 9 109 147 76 5 176 105 54 154 
Route 6 : 53 153 45 60 145 160 15 28 128 98 198 115 
Route 7 : 94 194 90 190 38 25 125 93 193 138 
Route 8 : 18 118 26 126 8 35 135 71 108 171 
Route 9 : 86 32 132 186 
Route 10 : 
Route 11 : 
Route 12 : 
Route 13 : 
Route 14 : 
Route 15 : 
Route 16 : 
Route 17 : 
Route 18 : 
Route 19 : 
Route 20 : 
Route 21 : 

--------------------------------------------------------------------------------(Solver execution current time: 26.677463054656982)
[INFO] AGES EXCLUDED
--------------------------------------------------------------------------------(Solver execution current time: 26.67919158935547)
[INFO] Starting LNS
--------------------------------------------------------------------------------(Solver execution current time: 28.407689809799194)
[SOLUTION]
LNS
IT: 40
Exec Time: 1.725475788116455
obj_value: -84; obj_routes: 33516.0
Route 1 : 22 30 130 91 16 122 191 1 23 123 52 58 152 158 88 116 10 188 101 37 41 137 99 199 6 106 110 49 149 141 65 165 
Route 2 : 59 51 151 14 27 75 95 77 56 159 114 175 3 13 177 113 46 84 156 184 146 12 112 78 103 81 195 181 178 127 79 179 34 17 134 117 
Route 3 : 68 168 72 62 162 172 92 192 80 180 66 73 63 7 107 82 166 173 43 182 163 143 67 24 124 36 167 136 74 174 
Route 4 : 44 144 70 96 57 170 85 196 157 39 64 139 185 164 19 119 40 140 
Route 5 : 100 200 97 47 197 9 109 147 76 5 176 105 
Route 6 : 53 153 45 60 145 160 15 86 186 115 
Route 7 : 18 118 25 125 93 193 
Route 8 : 38 138 32 132 
Route 9 : 28 128 98 8 108 198 
Route 10 : 54 154 48 148 
Route 11 : 90 190 26 126 
Route 12 : 94 194 35 135 
Route 13 : 71 171 
Route 14 : 
Route 15 : 
Route 16 : 
Route 17 : 
Route 18 : 
Route 19 : 
Route 20 : 
Route 21 : 

--------------------------------------------------------------------------------(Solver execution current time: 28.41439175605774)
[INFO] Starting PartitionMaxRequestsHF
--------------------------------------------------------------------------------(Solver execution current time: 28.44678544998169)
[SOLUTION]
PartitionMaxRequestsHF
Exec Time: 0.03223824501037598
Improvedobj_value: -84; obj_routes: 33232.0
Route 1 : 22 30 130 91 16 122 191 1 23 123 52 58 152 158 88 116 10 188 101 37 41 137 99 199 6 106 110 49 149 141 65 165 
Route 2 : 59 51 151 14 27 75 95 77 56 159 114 175 3 13 177 113 46 84 156 184 146 12 112 78 103 81 195 181 178 127 79 179 34 17 134 117 
Route 3 : 68 168 72 62 162 172 92 192 80 180 66 73 63 7 107 82 166 173 43 182 163 143 48 148 67 24 124 36 167 136 74 174 
Route 4 : 44 144 70 96 57 170 85 196 157 39 64 139 185 164 19 119 40 140 
Route 5 : 100 200 97 47 197 9 109 147 76 5 176 105 54 154 
Route 6 : 71 171 
Route 7 : 53 153 45 60 145 160 15 86 186 115 
Route 8 : 18 118 25 125 93 193 
Route 9 : 38 138 32 132 
Route 10 : 28 128 98 8 108 198 
Route 11 : 90 190 26 126 
Route 12 : 94 194 35 135 
Route 13 : 
Route 14 : 
Route 15 : 
Route 16 : 
Route 17 : 
Route 18 : 
Route 19 : 
Route 20 : 
Route 21 : 

--------------------------------------------------------------------------------(Solver execution current time: 28.448968172073364)
[INFO] Starting OriginalPerturbation
--------------------------------------------------------------------------------(Solver execution current time: 29.214016675949097)
[SOLUTION]
Original Perturbation
Exec Time: 0.766716718673706
obj_value: -84; obj_routes: 33980.0
Route 1 : 22 30 130 91 16 122 191 1 23 123 52 58 152 158 88 116 10 188 101 37 41 137 99 199 6 106 110 49 149 141 65 165 
Route 2 : 59 51 151 14 27 75 95 77 56 159 114 175 3 13 177 113 46 84 156 184 146 12 112 78 103 81 195 181 178 127 79 179 34 17 134 117 
Route 3 : 68 168 72 62 162 172 92 192 80 180 66 73 63 7 107 82 166 173 43 182 163 143 67 24 124 36 167 136 74 174 
Route 4 : 44 144 70 96 57 170 85 196 157 39 64 139 185 164 19 119 40 140 
Route 5 : 100 200 97 47 197 9 109 147 76 5 176 105 
Route 6 : 53 153 45 60 145 160 15 86 186 115 
Route 7 : 90 98 190 198 
Route 8 : 28 128 
Route 9 : 38 138 48 148 
Route 10 : 18 118 35 135 
Route 11 : 93 193 32 132 54 154 
Route 12 : 94 194 71 171 
Route 13 : 8 25 108 125 
Route 14 : 26 126 
Route 15 : 
Route 16 : 
Route 17 : 
Route 18 : 
Route 19 : 
Route 20 : 
Route 21 : 

--------------------------------------------------------------------------------(Solver execution current time: 29.21593451499939)
[SOLUTION]
SBMath
IT: 3
ITs witout improving: 3
IT time: 2.538480520248413
Time since begin: 13.357584714889526
obj_value: -84; obj_routes: 33980.0
Route 1 : 22 30 130 91 16 122 191 1 23 123 52 58 152 158 88 116 10 188 101 37 41 137 99 199 6 106 110 49 149 141 65 165 
Route 2 : 59 51 151 14 27 75 95 77 56 159 114 175 3 13 177 113 46 84 156 184 146 12 112 78 103 81 195 181 178 127 79 179 34 17 134 117 
Route 3 : 68 168 72 62 162 172 92 192 80 180 66 73 63 7 107 82 166 173 43 182 163 143 67 24 124 36 167 136 74 174 
Route 4 : 44 144 70 96 57 170 85 196 157 39 64 139 185 164 19 119 40 140 
Route 5 : 100 200 97 47 197 9 109 147 76 5 176 105 
Route 6 : 53 153 45 60 145 160 15 86 186 115 
Route 7 : 90 98 190 198 
Route 8 : 28 128 
Route 9 : 38 138 48 148 
Route 10 : 18 118 35 135 
Route 11 : 93 193 32 132 54 154 
Route 12 : 94 194 71 171 
Route 13 : 8 25 108 125 
Route 14 : 26 126 
Route 15 : 
Route 16 : 
Route 17 : 
Route 18 : 
Route 19 : 
Route 20 : 
Route 21 : 

--------------------------------------------------------------------------------(Solver execution current time: 29.216166257858276)
[SOLUTION]
SBMath
IT: 3
ITs witout improving: 3
IT time: 2.538480520248413
Time since begin: 13.357584714889526
obj_value: -84; obj_routes: 32906.0
Route 1 : 22 30 130 91 16 122 191 1 23 123 52 58 152 158 88 116 10 188 101 37 41 137 99 199 6 106 110 49 149 141 65 165 
Route 2 : 59 51 151 14 27 75 95 77 56 159 114 175 3 13 177 113 46 84 156 184 146 12 112 78 103 81 195 181 178 127 79 179 34 17 134 117 
Route 3 : 68 168 72 62 162 172 92 192 80 180 66 73 63 7 107 82 166 173 43 182 163 143 48 148 67 24 124 36 167 136 74 174 
Route 4 : 44 144 70 96 57 170 85 196 157 39 64 139 185 164 19 119 40 140 
Route 5 : 100 200 97 47 197 9 109 147 76 5 176 105 54 154 
Route 6 : 53 153 45 60 145 160 15 28 128 98 198 115 
Route 7 : 94 194 90 190 38 25 125 93 193 138 
Route 8 : 18 118 26 126 8 35 135 71 108 171 
Route 9 : 86 32 132 186 
Route 10 : 
Route 11 : 
Route 12 : 
Route 13 : 
Route 14 : 
Route 15 : 
Route 16 : 
Route 17 : 
Route 18 : 
Route 19 : 
Route 20 : 
Route 21 : 

--------------------------------------------------------------------------------(Solver execution current time: 29.21640634536743)
[INFO] AGES EXCLUDED
--------------------------------------------------------------------------------(Solver execution current time: 29.218191385269165)
[INFO] Starting LNS
--------------------------------------------------------------------------------(Solver execution current time: 30.020004272460938)
[WARNING] Time Limit Exceeded
--------------------------------------------------------------------------------(Solver execution current time: 30.02016282081604)
[WARNING] Searching current best solution.
--------------------------------------------------------------------------------(Solver execution current time: 30.022423267364502)
[INFO] Algorithm execution time : 30.02319860458374
--------------------------------------------------------------------------------(Solver execution current time: 30.02361536026001)
[SOLUTION]
Final Solution Verification
====================================
Constraints verification: 
Homogenous Capacity Constraint OK
Time Windwos Constraint OK
Pickup and Delivery Constraint OK
Fixed Requests Constraint OK
Limited Fleet Constraint OK
Heterogeneous Fleet Constraint OK
====================================
Obj Func verification: 
SOLUTION COST OK
------------------------------------
ROUTES TOTAL COST OK
------------------------------------
REQUESTS TOTAL COST OK
------------------------------------
OBJECTIVE VALUE: -84
ROUTES VALUE: 32906.0
------------------------------------

Best Solution: 
obj_value: -84; obj_routes: 32906.0
Route 1 : 22 30 130 91 16 122 191 1 23 123 52 58 152 158 88 116 10 188 101 37 41 137 99 199 6 106 110 49 149 141 65 165 
Route 2 : 59 51 151 14 27 75 95 77 56 159 114 175 3 13 177 113 46 84 156 184 146 12 112 78 103 81 195 181 178 127 79 179 34 17 134 117 
Route 3 : 68 168 72 62 162 172 92 192 80 180 66 73 63 7 107 82 166 173 43 182 163 143 48 148 67 24 124 36 167 136 74 174 
Route 4 : 44 144 70 96 57 170 85 196 157 39 64 139 185 164 19 119 40 140 
Route 5 : 100 200 97 47 197 9 109 147 76 5 176 105 54 154 
Route 6 : 53 153 45 60 145 160 15 28 128 98 198 115 
Route 7 : 94 194 90 190 38 25 125 93 193 138 
Route 8 : 18 118 26 126 8 35 135 71 108 171 
Route 9 : 86 32 132 186 
Route 10 : 
Route 11 : 
Route 12 : 
Route 13 : 
Route 14 : 
Route 15 : 
Route 16 : 
Route 17 : 
Route 18 : 
Route 19 : 
Route 20 : 
Route 21 : 

--------------------------------------------------------------------------------